<number of tasks>
50

<cycle time>
1000

<order strength>
0.198


<task times>
1 222
2 25
3 459
4 142
5 82
6 241
7 253
8 63
9 288
10 82
11 310
12 257
13 174
14 372
15 388
16 479
17 145
18 221
19 43
20 239
21 117
22 203
23 269
24 141
25 508
26 557
27 123
28 108
29 72
30 195
31 63
32 97
33 212
34 74
35 135
36 384
37 47
38 95
39 168
40 292
41 157
42 97
43 342
44 266
45 317
46 427
47 471
48 134
49 154
50 464

<precedence relations>
1,9
3,8
3,9
3,10
4,7
5,11
5,26
8,12
9,13
9,14
10,15
10,19
12,15
12,17
13,16
13,20
14,18
14,19
15,25
15,26
15,27
16,22
16,23
18,24
18,28
18,29
19,21
23,30
23,35
24,33
25,29
26,32
26,36
27,31
28,34
30,42
30,43
31,37
32,38
33,40
34,39
36,41
37,45
37,50
39,46
40,44
40,47
41,48
42,49

<end>
